NAME: st70-24-0
TYPE: TSP
COMMENT: min_cost = 447.56
DIMENSION: 24
EDGE_WEIGHT_TYPE: EUC_2D
NODE_COORD_SECTION
1 8 19
2 89 60
3 95 86
4 29 60
5 55 3
6 16 74
7 73 28
8 78 94
9 79 17
10 79 70
11 42 67
12 67 99
13 62 1
14 69 23
15 9 100
16 40 35
17 12 13
18 98 7
19 48 82
20 29 51
21 30 9
22 95 57
23 28 43
24 81 34
EOF
